NAME          LP_PROBLEM
ROWS
 N  OBJ
 L  C1
 L  C2
COLUMNS
    X1        OBJ       2
    X1        C1       -1
    X1        C2        3
    X2        OBJ       3
    X2        C1       -1
    X2        C2       -2
RHS
    RHS1      C1       -1
    RHS1      C2        0
BOUNDS
 LO BND1      X1        0
 LO BND1      X2        0
ENDATA
